Route #1: 1 167 125 210 1 
Route #2: 1 109 49 214 1 
Route #3: 1 67 187 111 1 
Route #4: 1 90 27 66 1 
Route #5: 1 164 176 112 1 
Route #6: 1 16 107 194 1 
Route #7: 1 97 77 35 1 
Route #8: 1 115 124 81 1 
Route #9: 1 141 129 151 1 
Route #10: 1 202 122 75 1 
Route #11: 1 204 110 46 1 
Route #12: 1 51 114 149 1 
Route #13: 1 177 117 170 1 
Route #14: 1 84 113 197 1 
Route #15: 1 106 86 44 1 
Route #16: 1 206 121 1 1 
Route #17: 1 26 85 39 1 
Route #18: 1 127 108 189 1 
Route #19: 1 64 61 116 1 
Route #20: 1 6 140 54 1 
Route #21: 1 87 193 188 1 
Route #22: 1 135 79 192 1 
Route #23: 1 160 215 60 1 
Route #24: 1 157 185 155 1 
Route #25: 1 208 82 163 1 
Route #26: 1 32 147 139 1 
Route #27: 1 123 48 207 1 
Route #28: 1 5 3 83 1 
Route #29: 1 4 132 62 1 
Route #30: 1 9 93 18 1 
Route #31: 1 119 55 101 1 
Route #32: 1 142 195 203 1 
Route #33: 1 158 198 7 1 
Route #34: 1 50 216 184 1 
Route #35: 1 211 205 76 1 
Route #36: 1 201 12 218 1 
Route #37: 1 162 183 138 1 
Route #38: 1 47 168 196 1 
Route #39: 1 95 178 99 1 
Route #40: 1 52 179 45 1 
Route #41: 1 24 186 42 1 
Route #42: 1 10 59 89 1 
Route #43: 1 98 104 120 1 
Route #44: 1 71 78 56 1 
Route #45: 1 103 126 199 1 
Route #46: 1 13 96 41 1 
Route #47: 1 8 130 209 1 
Route #48: 1 91 133 21 1 
Route #49: 1 146 74 181 1 
Route #50: 1 131 173 191 1 
Route #51: 1 134 25 88 1 
Route #52: 1 143 19 213 1 
Route #53: 1 28 94 68 1 
Route #54: 1 105 174 144 1 
Route #55: 1 190 166 180 1 
Route #56: 1 118 161 15 1 
Route #57: 1 63 14 73 1 
Route #58: 1 43 23 17 1 
Route #59: 1 30 36 92 1 
Route #60: 1 145 11 80 1 
Route #61: 1 169 58 171 1 
Route #62: 1 156 152 20 1 
Route #63: 1 137 172 40 1 
Route #64: 1 34 2 22 1 
Route #65: 1 72 212 69 1 
Route #66: 1 65 29 154 1 
Route #67: 1 100 182 33 1 
Route #68: 1 57 153 217 1 
Route #69: 1 148 200 38 1 
Route #70: 1 70 53 102 1 
Route #71: 1 31 159 150 1 
Route #72: 1 136 175 37 1 
Route #73: 1 128 165 1 

Cost 120710
Time 12.6999


 * Another infos *

 Iterations: 219 Time: 12.6999 sec - 0.2117 min - 0.0035 horas
0.0000 h 0.2117 min
Problem dimension: 219
